NAME: tsp_66
COMMENT: Random TSP instance
TYPE: TSP
DIMENSION: 50
EDGE_WEIGHT_TYPE: EUC_2D
NODE_COORD_SECTION
1 373 931
2 70 178
3 648 654
4 702 143
5 973 942
6 790 347
7 889 300
8 351 583
9 893 883
10 41 532
11 897 637
12 674 594
13 358 927
14 735 460
15 378 478
16 668 220
17 469 935
18 384 863
19 463 127
20 698 120
21 517 608
22 885 419
23 280 699
24 996 5
25 303 178
26 685 691
27 525 880
28 535 502
29 258 707
30 714 381
31 747 467
32 425 438
33 298 718
34 506 224
35 942 213
36 427 900
37 64 732
38 2 798
39 10 853
40 326 233
41 441 147
42 181 393
43 302 533
44 328 149
45 436 709
46 597 638
47 820 40
48 882 368
49 593 359
50 728 206
